NAME : 150_hard
TYPE : HCP TOUR
COMMENT : 150-node graph
DIMENSION : 150
EDGE_DATA_FORMAT : EDGE_LIST
EDGE_DATA_SECTION
103
137
118
106
136
57
16
7
85
56
22
30
63
3
35
53
67
135
90
26
45
1
2
64
4
129
82
23
38
52
112
91
121
32
146
142
99
5
113
18
21
40
84
70
44
96
117
49
14
123
133
24
47
102
122
41
120
74
78
9
125
13
83
80
55
107
147
104
134
95
11
97
66
72
111
81
51
48
60
28
68
87
61
76
145
114
10
144
79
98
88
116
150
34
27
86
93
132
71
25
138
29
148
101
141
50
131
100
94
115
37
12
31
127
128
59
20
58
17
15
8
140
149
119
109
6
77
108
73
110
46
65
130
126
39
124
54
89
43
36
62
75
69
92
139
19
105
33
42
143
-1
EOF
